data;

param n:=22;
param p:=3;
param r:=[1] 0 [2] 3 [3] 5 [4] 9 [5] 2 [6] 7 [7] 15 [8] 7 [9] 22 [10] 4 [11] 1 [12] 26 [13] 32 [14] 36 [15] 16 [16] 28 [17] 29 [18] 26 [19] 28 [20] 15 [21] 2 [22] 10 ;
param w:=[1] 48 [2] 68 [3] 20 [4] 29 [5] 14 [6] 78 [7] 29 [8] 86 [9] 30 [10] 6 [11] 21 [12] 43 [13] 34 [14] 53 [15] 29 [16] 34 [17] 52 [18] 32 [19] 32 [20] 20 [21] 43 [22] 21 ;

end;
